src/RACER/swarm_exploration/utils/lkh_mtsp_solver/resource/amtsp_3.atsp
NAME : amtsp
TYPE : ATSP
DIMENSION : 10
EDGE_WEIGHT_TYPE : EXPLICIT
EDGE_WEIGHT_FORMAT : FULL_MATRIX
EDGE_WEIGHT_SECTION
100000 -100000 100000 100000 100000 100000 100000 100000 100000 100000 
100000 100000 363 378 355 394 393 391 448 100000 
0 0 100000 66 17 31 30 27 242 333 
0 0 66 100000 73 37 36 47 240 316 
0 0 17 73 100000 45 42 38 250 350 
0 0 31 37 45 100000 5 10 254 322 
0 0 30 36 42 5 100000 11 258 327 
0 0 27 47 38 10 11 100000 260 332 
0 0 242 240 250 254 258 260 100000 235 
-100000 100000 333 316 350 322 327 332 235 100000 
