src/RACER/swarm_exploration/utils/lkh_mtsp_solver/resource/amtsp_3.tour
NAME : amtsp.-99671.tour
COMMENT : Length = -99671
COMMENT : Found by LKH [Keld Helsgaun] Tue May 13 10:40:35 2025
TYPE : TOUR
DIMENSION : 3
TOUR_SECTION
1
2
3
-1
EOF
